Optimal - objective value 8.04477700
      0 r_0                         0                       1
      1 r_1                         0                       1
      2 r_2                         0                       1
      3 r_3                         0                       1
      4 r_4                         1                       1
      5 r_5                         0                       1
      6 r_6                         0                0.985075
      7 r_7                         0                0.970149
      8 r_8                         1                0.940299
      9 r_9                         1                0.925373
     10 r_10                        0                0.880597
     11 r_11                        1                0.880597
     12 r_12                        0                0.835821
     13 r_13                        1                0.820896
     14 r_14                        1                 0.80597
     15 r_15                        1                0.791045
     16 b_0                         0                       1
     17 b_1                         0                       1
     18 b_2                         0                       1
     19 b_3                         0                       1
     20 b_4                         0                       1
     21 b_5                         1                       1
     22 b_6                         0                0.985075
     23 b_7                         0                0.970149
     24 b_8                         0                0.940299
     25 b_9                         0                0.925373
     26 b_10                        1                0.880597
     27 b_11                        0                0.880597
     28 b_12                        0                0.835821
     29 b_13                        0                0.820896
     30 b_14                        0                 0.80597
     31 b_15                        0                0.791045
